p cnf 30 70
1 2 0
3 4 0
5 6 0
7 8 0
9 10 0
11 12 0
13 14 0
15 16 0
17 18 0
19 20 0
21 22 0
23 24 0
25 26 0
27 28 0
29 30 0
-2 -1 0
-4 -3 0
-6 -5 0
-8 -7 0
-10 -9 0
-12 -11 0
-14 -13 0
-16 -15 0
-18 -17 0
-20 -19 0
-22 -21 0
-24 -23 0
-26 -25 0
-28 -27 0
-30 -29 0
-5 -1 -3 0
-6 -2 -4 0
-9 -1 -7 0
-10 -2 -8 0
-11 -3 -7 0
-12 -4 -8 0
-11 -5 -9 0
-12 -6 -10 0
-15 -1 -13 0
-16 -2 -14 0
-17 -3 -13 0
-18 -4 -14 0
-17 -5 -15 0
-18 -6 -16 0
-19 -7 -13 0
-20 -8 -14 0
-19 -9 -15 0
-20 -10 -16 0
-19 -11 -17 0
-20 -12 -18 0
-23 -1 -21 0
-24 -2 -22 0
-25 -3 -21 0
-26 -4 -22 0
-25 -5 -23 0
-26 -6 -24 0
-27 -7 -21 0
-28 -8 -22 0
-27 -9 -23 0
-28 -10 -24 0
-27 -11 -25 0
-28 -12 -26 0
-29 -13 -21 0
-30 -14 -22 0
-29 -15 -23 0
-30 -16 -24 0
-29 -17 -25 0
-30 -18 -26 0
-29 -19 -27 0
-30 -20 -28 0
